10J3M/DAT/10J3MUTR-8.dat
10 3
0.2325 27.7952
25.6228 0.5391
36.5225 34.6706
19.2398 46.1526
2.6356 42.2014
6.6445 34.4482
45.9887 30.1052
5.9151 40.5253
49.0199 15.8696
25.8555 39.5131
77.9551