10J3M/SOL/10J3MUTR-8.sol
solution status: optimal solution found
objective value:                     62.1444220447611
x#1#1                               0.459295033359044 	(obj:0)
x#1#3                               0.540704966640956 	(obj:0)
x#2#1                               0.562962507562392 	(obj:0)
x#2#2                               0.437037492437608 	(obj:0)
x#3#2                                               1 	(obj:0)
x#4#1                               0.237382331803694 	(obj:0)
x#4#2                               0.727057474408724 	(obj:0)
x#4#3                              0.0355601937875821 	(obj:0)
x#5#1                                               1 	(obj:0)
x#6#1                                               1 	(obj:0)
x#7#3                                               1 	(obj:0)
x#8#3                              0.0704587166688095 	(obj:0)
x#10#3                                              1 	(obj:0)
z                                    62.1444220447611 	(obj:1)
